(set-logic QF_S)
(declare-fun var0 () String)
(declare-fun var1 () String)
(declare-fun var2 () String)
(declare-fun var3 () String)
(declare-fun var4 () String)
(declare-fun var5 () String)
(declare-fun var6 () String)
(declare-fun var7 () String)
(declare-fun var8 () String)
(declare-fun var9 () String)
(declare-fun var10 () String)
(declare-fun var11 () String)
(declare-fun var12 () String)
(declare-fun var13 () String)
(declare-fun var14 () String)
(declare-fun var15 () String)
(declare-fun var16 () String)
(declare-fun var17 () String)
(declare-fun var18 () String)
(declare-fun var19 () String)
(declare-fun var20 () String)
(declare-fun var21 () String)
(declare-fun var22 () String)
(declare-fun var23 () String)
(declare-fun var24 () String)
(declare-fun var25 () String)
(declare-fun var26 () String)
(declare-fun var27 () String)
(declare-fun var28 () String)
(declare-fun var29 () String)
(declare-fun var30 () String)
(declare-fun var31 () String)
(declare-fun var32 () String)
(declare-fun var33 () String)
(declare-fun var34 () String)
(declare-fun var35 () String)
(declare-fun var36 () String)
(declare-fun var37 () String)
(declare-fun var38 () String)
(declare-fun var39 () String)
(declare-fun var40 () String)
(declare-fun var41 () String)
(declare-fun var42 () String)
(declare-fun var43 () String)
(declare-fun var44 () String)
(declare-fun var45 () String)
(declare-fun var46 () String)
(declare-fun var47 () String)
(declare-fun var48 () String)
(declare-fun var49 () String)
(declare-fun var50 () String)
(declare-fun var51 () String)
(declare-fun var52 () String)
(declare-fun var53 () String)
(declare-fun var54 () String)
(declare-fun var55 () String)
(declare-fun var56 () String)
(declare-fun var57 () String)
(declare-fun var58 () String)
(declare-fun var59 () String)
(declare-fun var60 () String)
(assert (= var0 (str.++ var1 var2)))
(assert (= var2 (str.++ var3 var4)))
(assert (= var4 (str.++ var5 var6)))
(assert (= var6 (str.++ var7 var8)))
(assert (= var8 (str.++ var9 var10)))
(assert (= var10 (str.++ var11 var12)))
(assert (= var12 (str.++ var13 var14)))
(assert (= var14 (str.++ var15 var16)))
(assert (= var16 (str.++ var17 var18)))
(assert (= var18 (str.++ var19 var20)))
(assert (= var20 (str.++ var21 var22)))
(assert (= var22 (str.++ var23 var24)))
(assert (= var24 (str.++ var25 var26)))
(assert (= var26 (str.++ var27 var28)))
(assert (= var28 (str.++ var29 var30)))
(assert (= var30 (str.++ var31 var32)))
(assert (= var32 (str.++ var33 var34)))
(assert (= var34 (str.++ var35 var36)))
(assert (= var36 (str.++ var37 var38)))
(assert (= var38 (str.++ var39 var40)))
(assert (= var40 (str.++ var41 var42)))
(assert (= var42 (str.++ var43 var44)))
(assert (= var44 (str.++ var45 var46)))
(assert (= var46 (str.++ var47 var48)))
(assert (= var48 (str.++ var49 var50)))
(assert (= var50 (str.++ var51 var52)))
(assert (= var52 (str.++ var53 var54)))
(assert (= var54 (str.++ var55 var56)))
(assert (= var56 (str.++ var57 var58)))
(assert (= var58 (str.++ var59 var60)))
(assert (= var0 "solution"))
(assert (= "o" (str.at var10 27)))
(assert (= "." (str.at var40 538)))
(assert (= "R" (str.at var2 848)))
(assert (= "b" (str.at var49 926)))
(assert (= "2" (str.at var41 843)))
(assert (= "8" (str.at var38 957)))
(assert (= "i" (str.at var54 776)))
(assert (= "t" (str.at var21 639)))
(assert (= "Y" (str.at var0 488)))
(assert (= "-" (str.at var39 700)))
(assert (= "l" (str.at var54 306)))
(assert (= "i" (str.at var27 731)))
(assert (= "6" (str.at var6 122)))
(assert (= "c" (str.at var10 386)))
(assert (= "a" (str.at var48 443)))
(assert (= "W" (str.at var28 475)))
(assert (= "Y" (str.at var38 246)))
(assert (= "!" (str.at var4 674)))
(assert (= "0" (str.at var55 610)))
(assert (= "4" (str.at var25 337)))
(assert (= "Y" (str.at var2 401)))
(assert (= "b" (str.at var25 649)))
(assert (= "D" (str.at var10 79)))
(assert (= "v" (str.at var31 624)))
(assert (= """" (str.at var0 767)))
(assert (= "F" (str.at var60 656)))
(assert (= "d" (str.at var58 51)))
(assert (= "`" (str.at var33 95)))
(assert (= "2" (str.at var36 750)))
(assert (= "b" (str.at var17 786)))
(assert (= "Y" (str.at var20 678)))
(assert (= "U" (str.at var51 689)))
(assert (= "k" (str.at var56 636)))
(assert (= "(" (str.at var17 302)))
(assert (= "A" (str.at var29 359)))
(assert (= "+" (str.at var34 600)))
(assert (= "y" (str.at var46 868)))
(assert (= "4" (str.at var9 821)))
(assert (= "^" (str.at var52 59)))
(assert (= "X" (str.at var33 316)))
(assert (= "A" (str.at var14 161)))
(assert (= "x" (str.at var14 676)))
(assert (= "6" (str.at var0 623)))
(assert (= "6" (str.at var16 511)))
(assert (= "3" (str.at var37 902)))
(assert (= "F" (str.at var27 491)))
(assert (= "#" (str.at var51 773)))
(assert (= "J" (str.at var15 32)))
(assert (= "0" (str.at var4 289)))
(assert (= "+" (str.at var8 382)))
(assert (= "+" (str.at var54 102)))
(assert (= "`" (str.at var58 136)))
(assert (= "9" (str.at var23 865)))
(assert (= "%" (str.at var48 461)))
(assert (= "9" (str.at var45 913)))
(assert (= "V" (str.at var3 638)))
(assert (= "&" (str.at var21 766)))
(assert (= "y" (str.at var37 541)))
(assert (= "7" (str.at var27 773)))
(assert (= "Z" (str.at var37 706)))
(assert (= "e" (str.at var56 401)))
(assert (= "-" (str.at var24 495)))
(assert (= "@" (str.at var3 514)))
(assert (= "k" (str.at var58 117)))
(assert (= "@" (str.at var31 691)))
(assert (= "-" (str.at var24 837)))
(assert (= ")" (str.at var59 112)))
(assert (= "h" (str.at var54 722)))
(assert (= "(" (str.at var53 223)))
(assert (= "z" (str.at var15 344)))
(assert (= "x" (str.at var48 368)))
(assert (= "," (str.at var32 373)))
(assert (= "a" (str.at var48 403)))
(assert (= "o" (str.at var48 957)))
(assert (= "U" (str.at var47 252)))
(assert (= "-" (str.at var28 232)))
(assert (= "H" (str.at var35 973)))
(assert (= "N" (str.at var35 892)))
(assert (= "l" (str.at var22 681)))
(assert (= "M" (str.at var24 328)))
(assert (= ")" (str.at var57 691)))
(assert (= "c" (str.at var26 820)))
(assert (= "L" (str.at var55 878)))
(assert (= "L" (str.at var43 560)))
(assert (= "!" (str.at var20 363)))
(assert (= "a" (str.at var48 847)))
(assert (= "!" (str.at var4 167)))
(assert (= "1" (str.at var2 263)))
(assert (= "C" (str.at var60 431)))
(assert (= "y" (str.at var37 506)))
(assert (= "m" (str.at var46 141)))
(assert (= "L" (str.at var37 349)))
(assert (= "!" (str.at var58 878)))
(assert (= "B" (str.at var56 622)))
(assert (= "P" (str.at var15 738)))
(assert (= "K" (str.at var57 572)))
(assert (= "k" (str.at var53 761)))
(assert (= "r" (str.at var37 413)))
(assert (= "f" (str.at var45 961)))
(assert (= "\\" (str.at var3 923)))
(assert (= "+" (str.at var19 553)))
(assert (= "@" (str.at var11 470)))
(assert (= "z" (str.at var43 739)))
(assert (= "h" (str.at var44 539)))
(assert (= "&" (str.at var47 98)))
(assert (= "v" (str.at var41 216)))
(assert (= "J" (str.at var47 875)))
(assert (= "," (str.at var25 660)))
(assert (= "V" (str.at var7 934)))
(assert (= "J" (str.at var9 496)))
(assert (= "T" (str.at var41 593)))
(assert (= "%" (str.at var55 249)))
(assert (= "E" (str.at var34 329)))
(assert (= "k" (str.at var15 678)))
(assert (= "*" (str.at var55 857)))
(assert (= "9" (str.at var33 762)))
(assert (= "e" (str.at var14 129)))
(assert (= "S" (str.at var7 435)))
(assert (= "^" (str.at var13 180)))
(assert (= "5" (str.at var41 483)))
(assert (= "R" (str.at var34 406)))
(assert (= "P" (str.at var43 137)))
(assert (= "E" (str.at var52 804)))
(assert (= "B" (str.at var25 482)))
(assert (= "M" (str.at var5 44)))
(assert (= "F" (str.at var26 438)))
(assert (= "1" (str.at var25 96)))
(assert (= "{" (str.at var44 161)))
(assert (= "K" (str.at var10 999)))
(assert (= "4" (str.at var19 167)))
(assert (= "7" (str.at var53 739)))
(assert (= "]" (str.at var0 874)))
(assert (= "4" (str.at var35 576)))
(assert (= "B" (str.at var52 251)))
(assert (= "(" (str.at var24 659)))
(assert (= "," (str.at var38 449)))
(assert (= "N" (str.at var43 68)))
(assert (= "5" (str.at var60 389)))
(assert (= "k" (str.at var15 429)))
(assert (= "Z" (str.at var7 781)))
(assert (= "." (str.at var9 11)))
(assert (= "V" (str.at var47 593)))
(assert (= "F" (str.at var49 170)))
(assert (= "A" (str.at var3 290)))
(assert (= "c" (str.at var55 597)))
(assert (= "T" (str.at var9 649)))
(assert (= "W" (str.at var38 48)))
(assert (= "o" (str.at var39 817)))
(assert (= "A" (str.at var51 812)))
(assert (= "v" (str.at var26 514)))
(assert (= "d" (str.at var13 244)))
(assert (= "n" (str.at var4 802)))
(assert (= "5" (str.at var58 43)))
(assert (= "'" (str.at var36 906)))
(assert (= "I" (str.at var51 217)))
(assert (= "(" (str.at var14 218)))
(assert (= "}" (str.at var51 34)))
(assert (= "2" (str.at var3 701)))
(assert (= "w" (str.at var41 670)))
(assert (= "|" (str.at var48 642)))
(assert (= "|" (str.at var51 380)))
(assert (= "%" (str.at var22 770)))
(assert (= "@" (str.at var27 584)))
(assert (= "?" (str.at var2 191)))
(assert (= "Y" (str.at var48 725)))
(assert (= "1" (str.at var11 873)))
(assert (= "O" (str.at var1 351)))
(assert (= "W" (str.at var7 916)))
(assert (= "|" (str.at var19 661)))
(assert (= "#" (str.at var43 18)))
(assert (= "t" (str.at var17 164)))
(assert (= "A" (str.at var45 94)))
(assert (= ";" (str.at var29 891)))
(assert (= "[" (str.at var36 900)))
(assert (= "A" (str.at var46 586)))
(assert (= "+" (str.at var22 557)))
(assert (= "9" (str.at var57 123)))
(assert (= "&" (str.at var19 160)))
(assert (= "\\" (str.at var39 715)))
(assert (= "x" (str.at var13 998)))
(assert (= "8" (str.at var42 932)))
(assert (= "P" (str.at var15 796)))
(assert (= "A" (str.at var31 264)))
(assert (= "m" (str.at var43 569)))
(assert (= "O" (str.at var19 54)))
(assert (= "M" (str.at var45 47)))
(assert (= "<" (str.at var12 957)))
(assert (= "n" (str.at var4 668)))
(assert (= "o" (str.at var30 240)))
(assert (= "r" (str.at var38 473)))
(assert (= "p" (str.at var38 345)))
(assert (= "P" (str.at var15 345)))
(assert (= "X" (str.at var44 326)))
(assert (= "X" (str.at var50 889)))
(assert (= "\\" (str.at var7 385)))
(assert (= "s" (str.at var46 224)))
(assert (= "." (str.at var4 159)))
(assert (= "M" (str.at var21 400)))
(assert (= "A" (str.at var51 132)))
(assert (= "7" (str.at var47 435)))
(assert (= "g" (str.at var46 691)))
(assert (= "m" (str.at var38 879)))
(assert (= "s" (str.at var53 638)))
(assert (= "B" (str.at var11 806)))
(assert (= "9" (str.at var28 802)))
(assert (= "3" (str.at var0 192)))
(assert (= "F" (str.at var13 253)))
(assert (= "z" (str.at var15 864)))
(assert (= "K" (str.at var11 674)))
(assert (= "7" (str.at var15 315)))
(assert (= "%" (str.at var30 935)))
(assert (= "e" (str.at var34 85)))
(assert (= "'" (str.at var22 751)))
(assert (= "d" (str.at var58 48)))
(assert (= "6" (str.at var53 87)))
(assert (= "H" (str.at var20 909)))
(assert (= ":" (str.at var58 402)))
(assert (= "L" (str.at var39 244)))
(assert (= "[" (str.at var52 611)))
(assert (= "j" (str.at var33 352)))
(assert (= ":" (str.at var24 177)))
(assert (= "," (str.at var35 940)))
(assert (= ";" (str.at var6 734)))
(assert (= "3" (str.at var38 593)))
(assert (= "&" (str.at var28 579)))
(assert (= "y" (str.at var29 799)))
(assert (= "D" (str.at var54 526)))
(assert (= "Q" (str.at var36 214)))
(assert (= "?" (str.at var27 639)))
(assert (= "u" (str.at var57 794)))
(assert (= "/" (str.at var55 933)))
(assert (= "@" (str.at var36 184)))
(assert (= "I" (str.at var2 148)))
(assert (= "J" (str.at var48 993)))
(assert (= "M" (str.at var54 735)))
(assert (= "D" (str.at var29 505)))
(assert (= "[" (str.at var12 277)))
(assert (= "J" (str.at var35 540)))
(assert (= "i" (str.at var25 29)))
(assert (= "$" (str.at var42 101)))
(assert (= "^" (str.at var19 495)))
(assert (= "N" (str.at var18 631)))
(assert (= "X" (str.at var24 54)))
(assert (= ";" (str.at var46 625)))
(assert (= "?" (str.at var2 424)))
(assert (= "6" (str.at var30 914)))
(assert (= "6" (str.at var39 946)))
(assert (= "i" (str.at var49 495)))
(assert (= "}" (str.at var50 137)))
(assert (= "E" (str.at var6 941)))
(assert (= "`" (str.at var10 804)))
(assert (= "p" (str.at var8 971)))
(assert (= "B" (str.at var24 135)))
(assert (= "6" (str.at var57 921)))
(assert (= "?" (str.at var10 483)))
(assert (= "," (str.at var58 84)))
(assert (= "E" (str.at var1 333)))
(assert (= "O" (str.at var56 354)))
(assert (= "x" (str.at var29 796)))
(assert (= "S" (str.at var37 972)))
(assert (= "\\" (str.at var40 56)))
(assert (= "i" (str.at var36 491)))
(assert (= "D" (str.at var56 533)))
(assert (= ";" (str.at var14 948)))
(assert (= "o" (str.at var43 987)))
(assert (= "V" (str.at var59 687)))
(assert (= "g" (str.at var1 733)))
(assert (= "q" (str.at var49 162)))
(assert (= "i" (str.at var27 522)))
(assert (= "W" (str.at var12 812)))
(assert (= "X" (str.at var35 684)))
(assert (= "p" (str.at var30 549)))
(assert (= "N" (str.at var7 397)))
(assert (= "&" (str.at var15 111)))
(assert (= "V" (str.at var33 591)))
(assert (= "l" (str.at var24 195)))
(assert (= "/" (str.at var32 665)))
(assert (= ";" (str.at var47 995)))
(assert (= "Y" (str.at var56 458)))
(assert (= "w" (str.at var1 473)))
(assert (= ")" (str.at var49 511)))
(assert (= "!" (str.at var5 929)))
(assert (= "w" (str.at var13 387)))
(assert (= "2" (str.at var29 791)))
(assert (= "7" (str.at var32 293)))
(assert (= "\\" (str.at var39 679)))
(assert (= "n" (str.at var17 161)))
(assert (= "g" (str.at var48 347)))
(assert (= "t" (str.at var23 746)))
(assert (= "@" (str.at var34 449)))
(assert (= "!" (str.at var36 208)))
(assert (= ">" (str.at var24 928)))
(assert (= "-" (str.at var60 738)))
(assert (= ";" (str.at var34 290)))
(assert (= "k" (str.at var41 999)))
(assert (= "-" (str.at var50 829)))
(assert (= "W" (str.at var51 676)))
(assert (= "M" (str.at var23 234)))
(assert (= "^" (str.at var45 320)))
(assert (= "r" (str.at var12 465)))
(assert (= "?" (str.at var5 643)))
(assert (= "6" (str.at var17 893)))
(assert (= "'" (str.at var44 840)))
(assert (= "b" (str.at var11 691)))
(assert (= "L" (str.at var43 619)))
(assert (= "^" (str.at var23 656)))
(assert (= "z" (str.at var1 474)))
(assert (= "7" (str.at var31 996)))
(assert (= "R" (str.at var53 499)))
(assert (= "J" (str.at var34 237)))
(assert (= "w" (str.at var30 759)))
(assert (= "5" (str.at var3 29)))
(assert (= "u" (str.at var20 943)))
(assert (= "e" (str.at var38 796)))
(assert (= "z" (str.at var28 285)))
(assert (= "<" (str.at var34 131)))
(assert (= "v" (str.at var5 979)))
(assert (= "4" (str.at var60 554)))
(assert (= "A" (str.at var20 182)))
(assert (= "B" (str.at var41 749)))
(assert (= "8" (str.at var24 188)))
(assert (= "Q" (str.at var33 824)))
(assert (= "`" (str.at var33 280)))
(assert (= "_" (str.at var27 198)))
(assert (= "t" (str.at var44 625)))
(assert (= "q" (str.at var44 551)))
(assert (= "k" (str.at var9 698)))
(assert (= "]" (str.at var40 492)))
(assert (= "A" (str.at var23 218)))
(assert (= "K" (str.at var12 62)))
(assert (= "K" (str.at var36 976)))
(assert (= "L" (str.at var33 730)))
(assert (= "6" (str.at var35 177)))
(assert (= "4" (str.at var20 200)))
(assert (= "h" (str.at var32 885)))
(assert (= "r" (str.at var16 458)))
(assert (= "y" (str.at var37 962)))
(assert (= "$" (str.at var32 675)))
(assert (= "I" (str.at var0 386)))
(assert (= "j" (str.at var28 726)))
(assert (= "L" (str.at var55 738)))
(assert (= "," (str.at var16 218)))
(assert (= "a" (str.at var54 542)))
(assert (= "M" (str.at var6 905)))
(assert (= "<" (str.at var52 693)))
(assert (= "w" (str.at var48 703)))
(assert (= "r" (str.at var7 158)))
(assert (= "b" (str.at var45 451)))
(assert (= "]" (str.at var32 198)))
(assert (= "D" (str.at var9 787)))
(assert (= "H" (str.at var60 245)))
(assert (= "%" (str.at var20 276)))
(assert (= "V" (str.at var14 719)))
(assert (= "U" (str.at var41 100)))
(assert (= "x" (str.at var13 133)))
(assert (= "/" (str.at var38 26)))
(assert (= "{" (str.at var5 120)))
(assert (= "X" (str.at var51 211)))
(assert (= "F" (str.at var47 391)))
(assert (= "u" (str.at var27 137)))
(assert (= "o" (str.at var30 687)))
(assert (= "e" (str.at var3 294)))
(assert (= "P" (str.at var33 371)))
(assert (= "r" (str.at var44 735)))
(assert (= "r" (str.at var51 138)))
(assert (= "Z" (str.at var47 490)))
(assert (= "^" (str.at var13 888)))
(assert (= "*" (str.at var30 311)))
(assert (= "g" (str.at var19 838)))
(assert (= "B" (str.at var56 203)))
(assert (= "`" (str.at var54 955)))
(assert (= "b" (str.at var21 842)))
(assert (= "R" (str.at var52 390)))
(assert (= "V" (str.at var55 327)))
(assert (= "k" (str.at var33 684)))
(assert (= "?" (str.at var52 954)))
(assert (= "." (str.at var20 104)))
(assert (= "3" (str.at var50 92)))
(assert (= "K" (str.at var5 118)))
(assert (= "." (str.at var32 813)))
(assert (= "." (str.at var43 105)))
(assert (= "/" (str.at var9 382)))
(assert (= "d" (str.at var35 998)))
(assert (= "4" (str.at var22 686)))
(assert (= "B" (str.at var36 174)))
(assert (= "M" (str.at var41 534)))
(assert (= "P" (str.at var5 760)))
(assert (= "o" (str.at var37 373)))
(assert (= "4" (str.at var3 450)))
(assert (= "T" (str.at var4 270)))
(assert (= ")" (str.at var10 494)))
(assert (= "q" (str.at var52 882)))
(assert (= "d" (str.at var55 310)))
(assert (= "f" (str.at var33 353)))
(assert (= "s" (str.at var38 916)))
(assert (= "(" (str.at var57 551)))
(assert (= "g" (str.at var23 537)))
(assert (= "&" (str.at var53 784)))
(assert (= "@" (str.at var59 260)))
(assert (= "W" (str.at var31 581)))
(assert (= "-" (str.at var4 413)))
(assert (= "=" (str.at var22 853)))
(assert (= "=" (str.at var60 257)))
(assert (= "S" (str.at var7 965)))
(assert (= "x" (str.at var17 888)))
(assert (= "l" (str.at var20 809)))
(assert (= "*" (str.at var5 482)))
(assert (= "L" (str.at var11 55)))
(assert (= "w" (str.at var33 949)))
(assert (= "h" (str.at var24 943)))
(assert (= "O" (str.at var10 387)))
(assert (= "N" (str.at var50 602)))
(assert (= "|" (str.at var48 36)))
(assert (= "e" (str.at var26 596)))
(assert (= "z" (str.at var44 347)))
(assert (= "S" (str.at var25 879)))
(assert (= "0" (str.at var57 89)))
(assert (= "`" (str.at var42 896)))
(assert (= "/" (str.at var40 443)))
(assert (= "V" (str.at var47 931)))
(assert (= "0" (str.at var53 937)))
(assert (= "Z" (str.at var8 517)))
(assert (= "C" (str.at var37 549)))
(assert (= ";" (str.at var8 7)))
(assert (= "U" (str.at var14 684)))
(assert (= "x" (str.at var54 628)))
(assert (= "'" (str.at var23 535)))
(assert (= "M" (str.at var48 480)))
(assert (= "T" (str.at var42 234)))
(assert (= "D" (str.at var12 950)))
(assert (= "~" (str.at var17 702)))
(assert (= "d" (str.at var23 255)))
(assert (= "<" (str.at var47 765)))
(assert (= "g" (str.at var52 26)))
(assert (= "H" (str.at var57 255)))
(assert (= "8" (str.at var53 936)))
(assert (= "Y" (str.at var3 940)))
(assert (= "}" (str.at var29 524)))
(assert (= "T" (str.at var21 830)))
(assert (= "l" (str.at var1 295)))
(assert (= "e" (str.at var43 972)))
(assert (= "e" (str.at var58 543)))
(assert (= "r" (str.at var39 455)))
(assert (= "Z" (str.at var59 192)))
(assert (= "D" (str.at var31 109)))
(assert (= "&" (str.at var35 783)))
(assert (= "Q" (str.at var4 631)))
(assert (= "8" (str.at var12 665)))
(assert (= "j" (str.at var12 737)))
(assert (= "|" (str.at var48 978)))
(assert (= "G" (str.at var6 21)))
(assert (= "L" (str.at var38 122)))
(assert (= "g" (str.at var23 311)))
(assert (= "E" (str.at var39 653)))
(assert (= "z" (str.at var50 433)))
(assert (= "<" (str.at var27 169)))
(assert (= "*" (str.at var28 665)))
(assert (= "*" (str.at var60 68)))
(assert (= "<" (str.at var43 531)))
(assert (= "?" (str.at var38 396)))
(assert (= "o" (str.at var47 263)))
(assert (= "C" (str.at var10 720)))
(assert (= "F" (str.at var36 267)))
(assert (= "0" (str.at var5 934)))
(assert (= "w" (str.at var47 613)))
(assert (= "I" (str.at var28 261)))
(assert (= "9" (str.at var6 248)))
(assert (= "p" (str.at var53 53)))
(assert (= "}" (str.at var40 325)))
(assert (= "z" (str.at var23 997)))
(assert (= "5" (str.at var33 160)))
(assert (= "e" (str.at var22 451)))
(assert (= "F" (str.at var20 940)))
(assert (= "#" (str.at var53 534)))
(assert (= ";" (str.at var50 444)))
(assert (= "3" (str.at var36 880)))
(assert (= "." (str.at var49 920)))
(assert (= "=" (str.at var16 182)))
(assert (= "^" (str.at var42 861)))
(assert (= "!" (str.at var6 503)))
(assert (= "5" (str.at var41 120)))
(assert (= "%" (str.at var57 574)))
(assert (= "#" (str.at var51 465)))
(assert (= ")" (str.at var38 216)))
(assert (= "x" (str.at var13 255)))
(assert (= "C" (str.at var29 418)))
(assert (= "I" (str.at var11 517)))
(assert (= "3" (str.at var33 610)))
(assert (= "Q" (str.at var19 622)))
(assert (= "w" (str.at var56 808)))
(assert (= "S" (str.at var53 60)))
(assert (= "X" (str.at var29 762)))
(assert (= "M" (str.at var5 24)))
(assert (= "M" (str.at var51 896)))
(assert (= "t" (str.at var12 149)))
(assert (= ":" (str.at var23 192)))
(assert (= "^" (str.at var44 11)))
(assert (= ":" (str.at var25 146)))
(assert (= "]" (str.at var49 128)))
(assert (= "M" (str.at var55 313)))
(assert (= "/" (str.at var48 241)))
(assert (= "X" (str.at var48 926)))
(assert (= "k" (str.at var3 22)))
(assert (= "," (str.at var51 1000)))
(assert (= "]" (str.at var36 963)))
(assert (= "5" (str.at var53 991)))
(assert (= """" (str.at var17 220)))
(assert (= "^" (str.at var48 769)))
(assert (= "F" (str.at var18 927)))
(assert (= "K" (str.at var53 672)))
(assert (= "C" (str.at var14 2)))
(assert (= "Z" (str.at var19 185)))
(assert (= "1" (str.at var45 185)))
(assert (= "r" (str.at var45 665)))
(assert (= "L" (str.at var43 79)))
(assert (= ")" (str.at var4 933)))
(assert (= "y" (str.at var16 974)))
(assert (= "R" (str.at var24 226)))
(assert (= "^" (str.at var18 746)))
(assert (= "=" (str.at var35 726)))
(assert (= "g" (str.at var25 444)))
(assert (= "+" (str.at var0 897)))
(assert (= "s" (str.at var4 59)))
(assert (= "w" (str.at var24 37)))
(assert (= "B" (str.at var14 910)))
(assert (= "O" (str.at var25 565)))
(assert (= "U" (str.at var49 299)))
(assert (= "$" (str.at var43 415)))
(assert (= "t" (str.at var36 201)))
(assert (= "l" (str.at var34 703)))
(assert (= ")" (str.at var37 294)))
(assert (= "L" (str.at var13 747)))
(assert (= "y" (str.at var26 125)))
(assert (= "w" (str.at var10 887)))
(assert (= "z" (str.at var29 968)))
(assert (= "$" (str.at var46 786)))
(assert (= ">" (str.at var7 72)))
(assert (= "`" (str.at var48 32)))
(assert (= "]" (str.at var35 75)))
(assert (= ")" (str.at var56 133)))
(assert (= "F" (str.at var48 451)))
(assert (= "R" (str.at var42 794)))
(assert (= "F" (str.at var4 554)))
(assert (= "B" (str.at var10 688)))
(assert (= "D" (str.at var49 53)))
(assert (= "o" (str.at var36 566)))
(assert (= "d" (str.at var30 919)))
(assert (= "R" (str.at var38 971)))
(assert (= "?" (str.at var52 244)))
(assert (= "," (str.at var46 891)))
(assert (= "e" (str.at var59 764)))
(assert (= "h" (str.at var20 580)))
(assert (= ">" (str.at var50 469)))
(assert (= "L" (str.at var50 438)))
(assert (= "v" (str.at var53 298)))
(assert (= "#" (str.at var34 919)))
(assert (= "^" (str.at var25 602)))
(assert (= "@" (str.at var57 329)))
(assert (= "}" (str.at var43 849)))
(assert (= "}" (str.at var52 767)))
(assert (= "." (str.at var26 124)))
(assert (= "g" (str.at var36 291)))
(assert (= "7" (str.at var8 860)))
(assert (= "L" (str.at var6 285)))
(assert (= "N" (str.at var27 173)))
(assert (= "H" (str.at var16 51)))
(assert (= "Q" (str.at var3 873)))
(assert (= "X" (str.at var25 511)))
(assert (= "N" (str.at var40 619)))
(assert (= "c" (str.at var2 337)))
(assert (= "O" (str.at var1 362)))
(assert (= "s" (str.at var4 382)))
(assert (= "U" (str.at var16 114)))
(assert (= "E" (str.at var40 570)))
(assert (= "[" (str.at var56 81)))
(assert (= "q" (str.at var19 909)))
(assert (= "0" (str.at var42 636)))
(assert (= "b" (str.at var31 495)))
(assert (= "J" (str.at var40 960)))
(assert (= "C" (str.at var38 770)))
(assert (= "X" (str.at var47 458)))
(assert (= "E" (str.at var59 329)))
(assert (= "N" (str.at var56 288)))
(assert (= "L" (str.at var60 281)))
(assert (= "H" (str.at var47 879)))
(assert (= "_" (str.at var55 714)))
(assert (= "1" (str.at var16 357)))
(assert (= "[" (str.at var34 321)))
(assert (= "Z" (str.at var6 118)))
(assert (= "&" (str.at var56 926)))
(assert (= "0" (str.at var15 994)))
(assert (= "+" (str.at var48 772)))
(assert (= "\\" (str.at var30 38)))
(assert (= ";" (str.at var21 677)))
(assert (= "m" (str.at var44 76)))
(assert (= "Z" (str.at var60 470)))
(assert (= "T" (str.at var16 932)))
(assert (= "p" (str.at var58 137)))
(assert (= "J" (str.at var9 343)))
(assert (= """" (str.at var55 781)))
(assert (= "@" (str.at var2 336)))
(assert (= "c" (str.at var45 221)))
(assert (= "`" (str.at var47 544)))
(assert (= "[" (str.at var42 1000)))
(assert (= "c" (str.at var29 690)))
(assert (= "G" (str.at var44 261)))
(assert (= "a" (str.at var36 748)))
(assert (= "$" (str.at var53 977)))
(assert (= "-" (str.at var9 607)))
(assert (= "Q" (str.at var11 717)))
(assert (= "B" (str.at var53 181)))
(assert (= "*" (str.at var23 903)))
(assert (= "c" (str.at var8 648)))
(assert (= "X" (str.at var30 371)))
(assert (= "k" (str.at var43 690)))
(assert (= "w" (str.at var28 731)))
(assert (= "8" (str.at var58 401)))
(assert (= "n" (str.at var17 806)))
(assert (= "l" (str.at var54 346)))
(assert (= "a" (str.at var56 529)))
(assert (= "w" (str.at var10 345)))
(assert (= "=" (str.at var18 521)))
(assert (= "X" (str.at var47 14)))
(assert (= ">" (str.at var22 640)))
(assert (= "J" (str.at var29 412)))
(assert (= "J" (str.at var28 743)))
(assert (= "|" (str.at var9 710)))
(assert (= "Q" (str.at var59 475)))
(assert (= "y" (str.at var4 425)))
(assert (= "Y" (str.at var7 966)))
(assert (= "*" (str.at var1 931)))
(assert (= "[" (str.at var57 522)))
(assert (= "c" (str.at var28 931)))
(assert (= ";" (str.at var53 232)))
(assert (= "h" (str.at var49 699)))
(assert (= ">" (str.at var55 803)))
(assert (= "5" (str.at var35 273)))
(assert (= "3" (str.at var0 619)))
(assert (= "2" (str.at var35 833)))
(assert (= "j" (str.at var51 645)))
(assert (= "O" (str.at var59 790)))
(assert (= "^" (str.at var8 239)))
(assert (= "E" (str.at var46 915)))
(assert (= "k" (str.at var4 863)))
(assert (= "L" (str.at var31 596)))
(assert (= "&" (str.at var17 86)))
(assert (= "#" (str.at var33 913)))
(assert (= "'" (str.at var28 154)))
(assert (= "4" (str.at var53 632)))
(assert (= "^" (str.at var14 773)))
(assert (= "'" (str.at var28 535)))
(assert (= "o" (str.at var10 467)))
(assert (= "h" (str.at var46 130)))
(assert (= "Y" (str.at var38 628)))
(assert (= "(" (str.at var19 564)))
(assert (= ":" (str.at var11 5)))
(assert (= "3" (str.at var56 337)))
(assert (= """" (str.at var40 260)))
(assert (= "G" (str.at var5 541)))
(assert (= "I" (str.at var12 647)))
(assert (= "X" (str.at var2 590)))
(assert (= "M" (str.at var19 292)))
(assert (= "s" (str.at var1 127)))
(assert (= "q" (str.at var0 510)))
(assert (= "'" (str.at var60 852)))
(assert (= ";" (str.at var25 205)))
(assert (= "V" (str.at var19 414)))
(assert (= "]" (str.at var36 726)))
(assert (= "B" (str.at var8 79)))
(assert (= "B" (str.at var23 676)))
(assert (= "]" (str.at var17 845)))
(assert (= "p" (str.at var22 425)))
(assert (= "<" (str.at var19 529)))
(assert (= "f" (str.at var7 15)))
(assert (= "A" (str.at var15 160)))
(assert (= "T" (str.at var6 797)))
(assert (= ")" (str.at var42 145)))
(assert (= "4" (str.at var47 296)))
(assert (= "+" (str.at var5 832)))
(assert (= ":" (str.at var16 403)))
(assert (= "j" (str.at var44 138)))
(assert (= "0" (str.at var4 287)))
(assert (= "6" (str.at var47 585)))
(assert (= "d" (str.at var14 213)))
(assert (= "U" (str.at var15 818)))
(assert (= "o" (str.at var3 848)))
(assert (= "y" (str.at var19 764)))
(assert (= "N" (str.at var30 510)))
(assert (= "D" (str.at var30 705)))
(assert (= ";" (str.at var9 87)))
(assert (= "@" (str.at var15 654)))
(assert (= "C" (str.at var7 728)))
(assert (= "@" (str.at var37 683)))
(assert (= "!" (str.at var37 807)))
(assert (= "C" (str.at var37 958)))
(assert (= "1" (str.at var32 504)))
(assert (= "_" (str.at var32 402)))
(assert (= "V" (str.at var15 97)))
(assert (= ")" (str.at var32 385)))
(assert (= "j" (str.at var20 9)))
(assert (= "A" (str.at var24 645)))
(assert (= """" (str.at var18 248)))
(assert (= "x" (str.at var8 518)))
(assert (= "Y" (str.at var53 202)))
(assert (= "-" (str.at var1 484)))
(assert (= "i" (str.at var1 350)))
(assert (= "i" (str.at var28 175)))
(assert (= "S" (str.at var45 498)))
(assert (= "_" (str.at var57 613)))
(assert (= "}" (str.at var29 595)))
(assert (= "z" (str.at var53 410)))
(assert (= "?" (str.at var27 7)))
(assert (= "e" (str.at var35 397)))
(assert (= "p" (str.at var36 155)))
(assert (= "t" (str.at var40 783)))
(assert (= "/" (str.at var12 191)))
(assert (= "_" (str.at var26 981)))
(assert (= "t" (str.at var30 969)))
(assert (= "8" (str.at var31 420)))
(assert (= "v" (str.at var34 820)))
(assert (= "[" (str.at var32 469)))
(assert (= "3" (str.at var19 19)))
(assert (= "|" (str.at var57 487)))
(assert (= "]" (str.at var44 163)))
(assert (= "9" (str.at var53 698)))
(assert (= "^" (str.at var8 13)))
(assert (= "," (str.at var51 547)))
(assert (= "b" (str.at var0 270)))
(assert (= "K" (str.at var50 292)))
(assert (= "&" (str.at var11 950)))
(assert (= "K" (str.at var39 204)))
(assert (= "X" (str.at var48 946)))
(assert (= "d" (str.at var40 802)))
(assert (= "{" (str.at var36 652)))
(assert (= "I" (str.at var56 620)))
(assert (= "P" (str.at var34 601)))
(assert (= "3" (str.at var2 776)))
(assert (= "i" (str.at var37 986)))
(assert (= "@" (str.at var49 732)))
(assert (= "4" (str.at var3 850)))
(assert (= "'" (str.at var30 678)))
(assert (= "a" (str.at var20 795)))
(assert (= "8" (str.at var23 646)))
(assert (= "z" (str.at var26 235)))
(assert (= "]" (str.at var9 224)))
(assert (= "Y" (str.at var34 241)))
(assert (= "Z" (str.at var24 391)))
(assert (= "n" (str.at var28 282)))
(assert (= "?" (str.at var28 983)))
(assert (= "7" (str.at var15 25)))
(assert (= "J" (str.at var55 323)))
(assert (= "Z" (str.at var8 243)))
(assert (= "!" (str.at var0 312)))
(assert (= "D" (str.at var5 680)))
(assert (= "\\" (str.at var53 363)))
(assert (= "." (str.at var31 164)))
(assert (= "#" (str.at var49 973)))
(assert (= ")" (str.at var22 584)))
(assert (= "w" (str.at var23 57)))
(assert (= "v" (str.at var6 241)))
(assert (= "5" (str.at var22 767)))
(assert (= "*" (str.at var29 190)))
(assert (= "I" (str.at var38 925)))
(assert (= "F" (str.at var13 331)))
(assert (= "S" (str.at var27 961)))
(assert (= ";" (str.at var27 219)))
(assert (= "<" (str.at var27 415)))
(assert (= "?" (str.at var49 990)))
(assert (= "." (str.at var29 236)))
(assert (= "u" (str.at var22 803)))
(assert (= "P" (str.at var27 859)))
(assert (= "D" (str.at var42 343)))
(assert (= "N" (str.at var42 355)))
(assert (= "!" (str.at var26 440)))
(assert (= "1" (str.at var58 989)))
(assert (= "A" (str.at var36 801)))
(assert (= "4" (str.at var25 1)))
(assert (= "k" (str.at var13 560)))
(assert (= "&" (str.at var10 370)))
(assert (= "N" (str.at var36 678)))
(assert (= "S" (str.at var12 197)))
(assert (= "$" (str.at var42 180)))
(assert (= "^" (str.at var46 480)))
(assert (= "U" (str.at var48 359)))
(assert (= "y" (str.at var60 651)))
(assert (= ":" (str.at var17 415)))
(assert (= "P" (str.at var40 385)))
(assert (= "2" (str.at var35 50)))
(assert (= "(" (str.at var36 93)))
(assert (= "h" (str.at var32 798)))
(assert (= "w" (str.at var29 178)))
(assert (= "m" (str.at var15 783)))
(assert (= "7" (str.at var47 164)))
(assert (= "{" (str.at var20 235)))
(assert (= "B" (str.at var58 15)))
(assert (= "|" (str.at var56 660)))
(assert (= "!" (str.at var38 985)))
(assert (= """" (str.at var19 617)))
(assert (= "j" (str.at var13 75)))
(assert (= "+" (str.at var31 900)))
(assert (= "`" (str.at var58 477)))
(assert (= "g" (str.at var39 957)))
(assert (= "(" (str.at var39 38)))
(assert (= "%" (str.at var27 956)))
(assert (= "_" (str.at var9 119)))
(assert (= "6" (str.at var32 624)))
(assert (= "s" (str.at var34 520)))
(assert (= "Y" (str.at var36 653)))
(assert (= "~" (str.at var42 620)))
(assert (= ":" (str.at var55 485)))
(assert (= "q" (str.at var6 670)))
(assert (= "}" (str.at var14 221)))
(assert (= "z" (str.at var6 161)))
(assert (= "_" (str.at var16 878)))
(assert (= "V" (str.at var10 116)))
(assert (= "-" (str.at var46 186)))
(assert (= """" (str.at var44 575)))
(assert (= "g" (str.at var30 481)))
(assert (= "w" (str.at var31 854)))
(assert (= "K" (str.at var5 181)))
(assert (= "@" (str.at var31 349)))
(assert (= "*" (str.at var22 3)))
(assert (= "N" (str.at var14 954)))
(assert (= "n" (str.at var8 766)))
(assert (= "M" (str.at var41 691)))
(assert (= "o" (str.at var0 139)))
(assert (= "m" (str.at var44 881)))
(assert (= ">" (str.at var58 430)))
(assert (= "B" (str.at var37 225)))
(assert (= "_" (str.at var27 200)))
(assert (= "}" (str.at var43 147)))
(assert (= "E" (str.at var32 693)))
(assert (= ")" (str.at var43 101)))
(assert (= "." (str.at var8 372)))
(assert (= "Z" (str.at var18 958)))
(assert (= "O" (str.at var16 740)))
(assert (= "^" (str.at var31 415)))
(assert (= "j" (str.at var51 431)))
(assert (= "V" (str.at var57 177)))
(assert (= "2" (str.at var4 748)))
(assert (= "Q" (str.at var2 171)))
(assert (= "*" (str.at var42 832)))
(assert (= "A" (str.at var19 568)))
(assert (= "O" (str.at var1 466)))
(assert (= "6" (str.at var5 136)))
(assert (= "O" (str.at var17 555)))
(assert (= "K" (str.at var0 812)))
(assert (= "?" (str.at var33 960)))
(assert (= "i" (str.at var36 226)))
(assert (= "w" (str.at var33 496)))
(assert (= "G" (str.at var48 536)))
(assert (= "0" (str.at var45 163)))
(assert (= "2" (str.at var31 226)))
(assert (= "7" (str.at var38 97)))
(assert (= "C" (str.at var5 313)))
(assert (= "J" (str.at var52 264)))
(assert (= "y" (str.at var31 728)))
(assert (= "z" (str.at var51 459)))
(assert (= "4" (str.at var0 757)))
(assert (= "e" (str.at var37 597)))
(assert (= "!" (str.at var25 665)))
(assert (= "1" (str.at var2 239)))
(assert (= "<" (str.at var34 39)))
(assert (= "o" (str.at var48 668)))
(assert (= "g" (str.at var43 29)))
(assert (= "v" (str.at var31 114)))
(assert (= "R" (str.at var22 287)))
(assert (= "S" (str.at var43 890)))
(assert (= "E" (str.at var51 386)))
(assert (= "o" (str.at var25 909)))
(assert (= "4" (str.at var41 164)))
(assert (= "m" (str.at var55 755)))
(assert (= "l" (str.at var24 698)))
(assert (= "=" (str.at var33 243)))
(assert (= "c" (str.at var37 923)))
(assert (= "%" (str.at var28 162)))
(assert (= "s" (str.at var14 901)))
(assert (= "l" (str.at var19 261)))
(assert (= "3" (str.at var2 375)))
(assert (= "F" (str.at var53 446)))
(assert (= "S" (str.at var39 316)))
(assert (= "M" (str.at var60 29)))
(assert (= "U" (str.at var47 819)))
(assert (= "B" (str.at var27 431)))
(assert (= "2" (str.at var29 494)))
(assert (= "0" (str.at var7 276)))
(assert (= "{" (str.at var1 447)))
(assert (= "v" (str.at var7 936)))
(assert (= "S" (str.at var8 912)))
(assert (= "J" (str.at var34 971)))
(assert (= "X" (str.at var19 862)))
(assert (= "x" (str.at var5 374)))
(assert (= "c" (str.at var46 158)))
(assert (= "l" (str.at var51 454)))
(assert (= "M" (str.at var1 284)))
(assert (= "?" (str.at var32 963)))
(assert (= "~" (str.at var58 78)))
(assert (= "h" (str.at var32 434)))
(assert (= "5" (str.at var53 59)))
(assert (= "{" (str.at var6 569)))
(assert (= "Q" (str.at var1 513)))
(assert (= "P" (str.at var16 451)))
(assert (= "}" (str.at var59 359)))
(assert (= ">" (str.at var14 457)))
(assert (= "h" (str.at var39 673)))
(assert (= "U" (str.at var8 122)))
(assert (= "J" (str.at var47 817)))
(assert (= ")" (str.at var5 947)))
(assert (= "a" (str.at var5 827)))
(assert (= "c" (str.at var4 541)))
(assert (= "g" (str.at var6 464)))
(assert (= "S" (str.at var56 265)))
(assert (= "'" (str.at var5 64)))
(assert (= "." (str.at var8 562)))
(assert (= "(" (str.at var17 82)))
(assert (= "," (str.at var4 622)))
(assert (= "N" (str.at var58 644)))
(assert (= "4" (str.at var28 891)))
(assert (= "9" (str.at var8 23)))
(assert (= "7" (str.at var20 775)))
(assert (= "*" (str.at var58 840)))
(assert (= "x" (str.at var12 255)))
(assert (= "K" (str.at var38 84)))
(assert (= "_" (str.at var58 45)))
(assert (= "J" (str.at var48 124)))
(assert (= "g" (str.at var27 94)))
(assert (= "O" (str.at var13 279)))
(assert (= "n" (str.at var2 80)))
(assert (= "O" (str.at var34 44)))
(assert (= "d" (str.at var22 696)))
(assert (= "}" (str.at var49 893)))
(assert (= "#" (str.at var59 676)))
(assert (= "K" (str.at var50 486)))
(assert (= "I" (str.at var36 492)))
(assert (= "$" (str.at var6 901)))
(assert (= "*" (str.at var16 208)))
(assert (= "(" (str.at var60 951)))
(assert (= "]" (str.at var16 898)))
(assert (= "V" (str.at var31 978)))
(assert (= "i" (str.at var60 524)))
(assert (= "g" (str.at var35 663)))
(assert (= "R" (str.at var37 960)))
(assert (= "}" (str.at var32 233)))
(assert (= "9" (str.at var53 356)))
(assert (= "\\" (str.at var48 312)))
(assert (= "$" (str.at var19 601)))
(assert (= "6" (str.at var16 413)))
(assert (= "B" (str.at var19 113)))
(assert (= "q" (str.at var18 369)))
(assert (= "`" (str.at var59 984)))
(assert (= "o" (str.at var42 542)))
(assert (= "G" (str.at var4 245)))
(assert (= "y" (str.at var16 722)))
(assert (= "J" (str.at var20 698)))
(assert (= "9" (str.at var36 233)))
(assert (= ";" (str.at var51 247)))
(assert (= "6" (str.at var40 342)))
(assert (= "J" (str.at var41 969)))
(assert (= "(" (str.at var33 240)))
(assert (= "^" (str.at var14 898)))
(assert (= "Y" (str.at var60 933)))
(check-sat)